/* Objective function */
min: +C43 +C44 +C45 +C46 +C47 +C48;

/* Constraints */
+34 C1 +36 C2 +69 C3 +54 C4 +44 C5 +72 C6 -88 C37 <= 0;
+34 C7 +36 C8 +69 C9 +54 C10 +44 C11 +72 C12 -88 C38 <= 0;
+34 C13 +36 C14 +69 C15 +54 C16 +44 C17 +72 C18 -88 C39 <= 0;
+34 C19 +36 C20 +69 C21 +54 C22 +44 C23 +72 C24 -88 C40 <= 0;
+34 C25 +36 C26 +69 C27 +54 C28 +44 C29 +72 C30 -88 C41 <= 0;
+34 C31 +36 C32 +69 C33 +54 C34 +44 C35 +72 C36 -88 C42 <= 0;
+16 C1 +8 C2 +18 C3 +18 C4 +14 C5 +19 C6 -19 C37 <= 0;
+16 C7 +8 C8 +18 C9 +18 C10 +14 C11 +19 C12 -19 C38 <= 0;
+16 C13 +8 C14 +18 C15 +18 C16 +14 C17 +19 C18 -19 C39 <= 0;
+16 C19 +8 C20 +18 C21 +18 C22 +14 C23 +19 C24 -19 C40 <= 0;
+16 C25 +8 C26 +18 C27 +18 C28 +14 C29 +19 C30 -19 C41 <= 0;
+16 C31 +8 C32 +18 C33 +18 C34 +14 C35 +19 C36 -19 C42 <= 0;
+C1 +C7 +C13 +C19 +C25 +C31 = 1;
+C2 +C8 +C14 +C20 +C26 +C32 = 1;
+C3 +C9 +C15 +C21 +C27 +C33 = 1;
+C4 +C10 +C16 +C22 +C28 +C34 = 1;
+C5 +C11 +C17 +C23 +C29 +C35 = 1;
+C6 +C12 +C18 +C24 +C30 +C36 = 1;
+80 C1 +40 C2 +90 C3 +90 C4 +70 C5 +95 C6 -16 C7 -8 C8 -18 C9 -18 C10 -14 C11 -19 C12 -16 C13 -8 C14
 -18 C15 -18 C16 -14 C17 -19 C18 -16 C19 -8 C20 -18 C21 -18 C22 -14 C23 -19 C24 -16 C25 -8 C26 -18 C27
 -18 C28 -14 C29 -19 C30 -16 C31 -8 C32 -18 C33 -18 C34 -14 C35 -19 C36 -C43 <= 0;
-80 C1 -40 C2 -90 C3 -90 C4 -70 C5 -95 C6 +16 C7 +8 C8 +18 C9 +18 C10 +14 C11 +19 C12 +16 C13 +8 C14
 +18 C15 +18 C16 +14 C17 +19 C18 +16 C19 +8 C20 +18 C21 +18 C22 +14 C23 +19 C24 +16 C25 +8 C26 +18 C27
 +18 C28 +14 C29 +19 C30 +16 C31 +8 C32 +18 C33 +18 C34 +14 C35 +19 C36 -C43 <= 0;
-16 C1 -8 C2 -18 C3 -18 C4 -14 C5 -19 C6 +80 C7 +40 C8 +90 C9 +90 C10 +70 C11 +95 C12 -16 C13 -8 C14
 -18 C15 -18 C16 -14 C17 -19 C18 -16 C19 -8 C20 -18 C21 -18 C22 -14 C23 -19 C24 -16 C25 -8 C26 -18 C27
 -18 C28 -14 C29 -19 C30 -16 C31 -8 C32 -18 C33 -18 C34 -14 C35 -19 C36 -C44 <= 0;
+16 C1 +8 C2 +18 C3 +18 C4 +14 C5 +19 C6 -80 C7 -40 C8 -90 C9 -90 C10 -70 C11 -95 C12 +16 C13 +8 C14
 +18 C15 +18 C16 +14 C17 +19 C18 +16 C19 +8 C20 +18 C21 +18 C22 +14 C23 +19 C24 +16 C25 +8 C26 +18 C27
 +18 C28 +14 C29 +19 C30 +16 C31 +8 C32 +18 C33 +18 C34 +14 C35 +19 C36 -C44 <= 0;
-16 C1 -8 C2 -18 C3 -18 C4 -14 C5 -19 C6 -16 C7 -8 C8 -18 C9 -18 C10 -14 C11 -19 C12 +80 C13 +40 C14
 +90 C15 +90 C16 +70 C17 +95 C18 -16 C19 -8 C20 -18 C21 -18 C22 -14 C23 -19 C24 -16 C25 -8 C26 -18 C27
 -18 C28 -14 C29 -19 C30 -16 C31 -8 C32 -18 C33 -18 C34 -14 C35 -19 C36 -C45 <= 0;
+16 C1 +8 C2 +18 C3 +18 C4 +14 C5 +19 C6 +16 C7 +8 C8 +18 C9 +18 C10 +14 C11 +19 C12 -80 C13 -40 C14
 -90 C15 -90 C16 -70 C17 -95 C18 +16 C19 +8 C20 +18 C21 +18 C22 +14 C23 +19 C24 +16 C25 +8 C26 +18 C27
 +18 C28 +14 C29 +19 C30 +16 C31 +8 C32 +18 C33 +18 C34 +14 C35 +19 C36 -C45 <= 0;
-16 C1 -8 C2 -18 C3 -18 C4 -14 C5 -19 C6 -16 C7 -8 C8 -18 C9 -18 C10 -14 C11 -19 C12 -16 C13 -8 C14 -18 C15
 -18 C16 -14 C17 -19 C18 +80 C19 +40 C20 +90 C21 +90 C22 +70 C23 +95 C24 -16 C25 -8 C26 -18 C27 -18 C28
 -14 C29 -19 C30 -16 C31 -8 C32 -18 C33 -18 C34 -14 C35 -19 C36 -C46 <= 0;
+16 C1 +8 C2 +18 C3 +18 C4 +14 C5 +19 C6 +16 C7 +8 C8 +18 C9 +18 C10 +14 C11 +19 C12 +16 C13 +8 C14 +18 C15
 +18 C16 +14 C17 +19 C18 -80 C19 -40 C20 -90 C21 -90 C22 -70 C23 -95 C24 +16 C25 +8 C26 +18 C27 +18 C28
 +14 C29 +19 C30 +16 C31 +8 C32 +18 C33 +18 C34 +14 C35 +19 C36 -C46 <= 0;
-16 C1 -8 C2 -18 C3 -18 C4 -14 C5 -19 C6 -16 C7 -8 C8 -18 C9 -18 C10 -14 C11 -19 C12 -16 C13 -8 C14 -18 C15
 -18 C16 -14 C17 -19 C18 -16 C19 -8 C20 -18 C21 -18 C22 -14 C23 -19 C24 +80 C25 +40 C26 +90 C27 +90 C28
 +70 C29 +95 C30 -16 C31 -8 C32 -18 C33 -18 C34 -14 C35 -19 C36 -C47 <= 0;
+16 C1 +8 C2 +18 C3 +18 C4 +14 C5 +19 C6 +16 C7 +8 C8 +18 C9 +18 C10 +14 C11 +19 C12 +16 C13 +8 C14 +18 C15
 +18 C16 +14 C17 +19 C18 +16 C19 +8 C20 +18 C21 +18 C22 +14 C23 +19 C24 -80 C25 -40 C26 -90 C27 -90 C28
 -70 C29 -95 C30 +16 C31 +8 C32 +18 C33 +18 C34 +14 C35 +19 C36 -C47 <= 0;
-16 C1 -8 C2 -18 C3 -18 C4 -14 C5 -19 C6 -16 C7 -8 C8 -18 C9 -18 C10 -14 C11 -19 C12 -16 C13 -8 C14 -18 C15
 -18 C16 -14 C17 -19 C18 -16 C19 -8 C20 -18 C21 -18 C22 -14 C23 -19 C24 -16 C25 -8 C26 -18 C27 -18 C28
 -14 C29 -19 C30 +80 C31 +40 C32 +90 C33 +90 C34 +70 C35 +95 C36 -C48 <= 0;
+16 C1 +8 C2 +18 C3 +18 C4 +14 C5 +19 C6 +16 C7 +8 C8 +18 C9 +18 C10 +14 C11 +19 C12 +16 C13 +8 C14 +18 C15
 +18 C16 +14 C17 +19 C18 +16 C19 +8 C20 +18 C21 +18 C22 +14 C23 +19 C24 +16 C25 +8 C26 +18 C27 +18 C28
 +14 C29 +19 C30 -80 C31 -40 C32 -90 C33 -90 C34 -70 C35 -95 C36 -C48 <= 0;

/* Variable bounds */
C1 <= 1;
C2 <= 1;
C3 <= 1;
C4 <= 1;
C5 <= 1;
C6 <= 1;
C7 <= 1;
C8 <= 1;
C9 <= 1;
C10 <= 1;
C11 <= 1;
C12 <= 1;
C13 <= 1;
C14 <= 1;
C15 <= 1;
C16 <= 1;
C17 <= 1;
C18 <= 1;
C19 <= 1;
C20 <= 1;
C21 <= 1;
C22 <= 1;
C23 <= 1;
C24 <= 1;
C25 <= 1;
C26 <= 1;
C27 <= 1;
C28 <= 1;
C29 <= 1;
C30 <= 1;
C31 <= 1;
C32 <= 1;
C33 <= 1;
C34 <= 1;
C35 <= 1;
C36 <= 1;
C37 <= 1;
C38 <= 1;
C39 <= 1;
C40 <= 1;
C41 <= 1;
C42 <= 1;

/* Integer definitions */
int C1,C2,C3,C4,C5,C6,C7,C8,C9,C10,C11,C12,C13,C14,C15,C16,C17,C18,C19,C20,C21,C22,C23,C24,C25,C26,C27,C28,C29,C30,C31,C32,C33,C34,C35,C36,C37,C38,C39,C40,C41,C42,C43,C44,C45,C46,C47,C48;
